single_objective/SL-DABL/OP/problems/op/OPLib-master/instances/gen1/ts225-gen1-50.oplib
NAME : ts225
COMMENT : 225-city problem (Juenger,Raecke,Tschoecke)
TYPE : OP
DIMENSION : 225
COST_LIMIT : 63322
EDGE_WEIGHT_TYPE : EUC_2D
NODE_COORD_SECTION
1 4000 4000
2 4000 4500
3 4000 5000
4 4000 5500
5 4000 6000
6 4000 6500
7 4000 7000
8 4000 7500
9 4000 8000
10 4000 8500
11 4000 9000
12 4000 9500
13 4000 10000
14 4000 10500
15 4000 11000
16 4000 11500
17 4000 12000
18 4000 12500
19 4000 13000
20 4000 13500
21 4000 14000
22 4000 14500
23 4000 15000
24 4000 15500
25 4000 16000
26 7000 4000
27 7000 4500
28 7000 5000
29 7000 5500
30 7000 6000
31 7000 6500
32 7000 7000
33 7000 7500
34 7000 8000
35 7000 8500
36 7000 9000
37 7000 9500
38 7000 10000
39 7000 10500
40 7000 11000
41 7000 11500
42 7000 12000
43 7000 12500
44 7000 13000
45 7000 13500
46 7000 14000
47 7000 14500
48 7000 15000
49 7000 15500
50 7000 16000
51 10000 4000
52 10000 4500
53 10000 5000
54 10000 5500
55 10000 6000
56 10000 6500
57 10000 7000
58 10000 7500
59 10000 8000
60 10000 8500
61 10000 9000
62 10000 9500
63 10000 10000
64 10000 10500
65 10000 11000
66 10000 11500
67 10000 12000
68 10000 12500
69 10000 13000
70 10000 13500
71 10000 14000
72 10000 14500
73 10000 15000
74 10000 15500
75 10000 16000
76 13000 4000
77 13000 4500
78 13000 5000
79 13000 5500
80 13000 6000
81 13000 6500
82 13000 7000
83 13000 7500
84 13000 8000
85 13000 8500
86 13000 9000
87 13000 9500
88 13000 10000
89 13000 10500
90 13000 11000
91 13000 11500
92 13000 12000
93 13000 12500
94 13000 13000
95 13000 13500
96 13000 14000
97 13000 14500
98 13000 15000
99 13000 15500
100 13000 16000
101 16000 4000
102 16000 4500
103 16000 5000
104 16000 5500
105 16000 6000
106 16000 6500
107 16000 7000
108 16000 7500
109 16000 8000
110 16000 8500
111 16000 9000
112 16000 9500
113 16000 10000
114 16000 10500
115 16000 11000
116 16000 11500
117 16000 12000
118 16000 12500
119 16000 13000
120 16000 13500
121 16000 14000
122 16000 14500
123 16000 15000
124 16000 15500
125 16000 16000
126 4500 4000
127 5000 4000
128 5500 4000
129 6000 4000
130 6500 4000
131 4500 7000
132 5000 7000
133 5500 7000
134 6000 7000
135 6500 7000
136 4500 10000
137 5000 10000
138 5500 10000
139 6000 10000
140 6500 10000
141 4500 13000
142 5000 13000
143 5500 13000
144 6000 13000
145 6500 13000
146 4500 16000
147 5000 16000
148 5500 16000
149 6000 16000
150 6500 16000
151 7500 4000
152 8000 4000
153 8500 4000
154 9000 4000
155 9500 4000
156 7500 7000
157 8000 7000
158 8500 7000
159 9000 7000
160 9500 7000
161 7500 10000
162 8000 10000
163 8500 10000
164 9000 10000
165 9500 10000
166 7500 13000
167 8000 13000
168 8500 13000
169 9000 13000
170 9500 13000
171 7500 16000
172 8000 16000
173 8500 16000
174 9000 16000
175 9500 16000
176 10500 4000
177 11000 4000
178 11500 4000
179 12000 4000
180 12500 4000
181 10500 7000
182 11000 7000
183 11500 7000
184 12000 7000
185 12500 7000
186 10500 10000
187 11000 10000
188 11500 10000
189 12000 10000
190 12500 10000
191 10500 13000
192 11000 13000
193 11500 13000
194 12000 13000
195 12500 13000
196 10500 16000
197 11000 16000
198 11500 16000
199 12000 16000
200 12500 16000
201 13500 4000
202 14000 4000
203 14500 4000
204 15000 4000
205 15500 4000
206 13500 7000
207 14000 7000
208 14500 7000
209 15000 7000
210 15500 7000
211 13500 10000
212 14000 10000
213 14500 10000
214 15000 10000
215 15500 10000
216 13500 13000
217 14000 13000
218 14500 13000
219 15000 13000
220 15500 13000
221 13500 16000
222 14000 16000
223 14500 16000
224 15000 16000
225 15500 16000
NODE_SCORE_SECTION
1 1
2 1
3 1
4 1
5 1
6 1
7 1
8 1
9 1
10 1
11 1
12 1
13 1
14 1
15 1
16 1
17 1
18 1
19 1
20 1
21 1
22 1
23 1
24 1
25 1
26 1
27 1
28 1
29 1
30 1
31 1
32 1
33 1
34 1
35 1
36 1
37 1
38 1
39 1
40 1
41 1
42 1
43 1
44 1
45 1
46 1
47 1
48 1
49 1
50 1
51 1
52 1
53 1
54 1
55 1
56 1
57 1
58 1
59 1
60 1
61 1
62 1
63 1
64 1
65 1
66 1
67 1
68 1
69 1
70 1
71 1
72 1
73 1
74 1
75 1
76 1
77 1
78 1
79 1
80 1
81 1
82 1
83 1
84 1
85 1
86 1
87 1
88 1
89 1
90 1
91 1
92 1
93 1
94 1
95 1
96 1
97 1
98 1
99 1
100 1
101 1
102 1
103 1
104 1
105 1
106 1
107 1
108 1
109 1
110 1
111 1
112 1
113 1
114 1
115 1
116 1
117 1
118 1
119 1
120 1
121 1
122 1
123 1
124 1
125 1
126 1
127 1
128 1
129 1
130 1
131 1
132 1
133 1
134 1
135 1
136 1
137 1
138 1
139 1
140 1
141 1
142 1
143 1
144 1
145 1
146 1
147 1
148 1
149 1
150 1
151 1
152 1
153 1
154 1
155 1
156 1
157 1
158 1
159 1
160 1
161 1
162 1
163 1
164 1
165 1
166 1
167 1
168 1
169 1
170 1
171 1
172 1
173 1
174 1
175 1
176 1
177 1
178 1
179 1
180 1
181 1
182 1
183 1
184 1
185 1
186 1
187 1
188 1
189 1
190 1
191 1
192 1
193 1
194 1
195 1
196 1
197 1
198 1
199 1
200 1
201 1
202 1
203 1
204 1
205 1
206 1
207 1
208 1
209 1
210 1
211 1
212 1
213 1
214 1
215 1
216 1
217 1
218 1
219 1
220 1
221 1
222 1
223 1
224 1
225 1
DEPOT_SECTION
1
-1
EOF
