single_objective/SL-DABL/OP/problems/op/OPLib-master/solutions/ea4op/gen1/ts225-gen1-50.sol
NAME : ts225
TYPE : OP
DIMENSION : 225
COST_LIMIT : 63322
ROUTE_NODES : 124
ROUTE_SCORE : 124
ROUTE_COST : 63242
NODE_SEQUENCE_SECTION
1
126
127
128
129
130
26
27
28
29
30
31
156
157
158
159
160
57
181
182
183
184
185
82
81
80
79
78
77
180
76
201
202
203
204
205
101
102
103
104
105
106
107
108
109
110
111
112
113
114
115
116
117
118
119
120
121
122
123
124
125
225
224
223
222
221
100
99
200
199
198
197
196
74
75
175
174
173
172
171
50
150
149
148
147
146
25
24
23
22
21
20
19
18
141
142
143
144
145
44
43
42
41
40
39
38
37
36
35
34
33
32
135
134
133
132
131
8
7
6
5
4
3
2
-1
DEPOT_SECTION
1
-1
EOF
